(set-logic HORN)
(declare-fun assert_245_33_8_abs0 (Int Int Int Int Int Int) Bool)
(declare-fun assign_219_31_10_abs0 (Int Int Int Int Int Int) Bool)
(declare-fun assert_210_30_10_abs0 (Int Int Int Int Int Int) Bool)
(declare-fun assert_195_29_10_abs0 (Int Int Int Int Int Int) Bool)
(declare-fun while_222_27_8_abs0 (Int Int Int Int Int Int) Bool)
(declare-fun assign_154_26_8_abs0 (Int Int Int Int Int Int) Bool)
(declare-fun assign_145_23_5_abs0 (Int Int Int Int Int Int) Bool)
(declare-fun assign_133_21_2_abs0 (Int Int Int Int Int Int) Bool)
(declare-fun assign_124_20_2_abs0 (Int Int Int Int Int Int) Bool)
(declare-fun if_137_19_5_abs0 (Int Int Int Int Int Int) Bool)
(declare-fun assert_106_18_12_abs0 (Int Int Int Int Int Int) Bool)
(declare-fun while_148_17_1_abs0 (Int Int Int Int Int Int) Bool)
(declare-fun assign_65_15_1_abs0 (Int Int Int Int Int Int) Bool)
(declare-fun assign_56_14_1_abs0 (Int Int Int Int Int Int) Bool)
(declare-fun assign_44_13_1_abs0 (Int Int Int Int Int Int) Bool)
(declare-fun assign_32_12_1_abs0 (Int Int Int Int Int Int) Bool)
(declare-fun end_abs0 (Int Int Int Int Int Int) Bool)
(declare-fun start_abs0 (Int Int Int Int Int Int) Bool)
(assert (forall ((a (Array Int Int)) (elem Int) (pos Int) (N Int) (i Int) (vabs_f_f Int)) (start_abs0 vabs_f_f (select a vabs_f_f) elem pos N i)))
(assert (forall ((i Int) (N Int) (pos Int) (elem Int) (a (Array Int Int)) (vabs_0_f_f Int)) (=> (start_abs0 vabs_0_f_f (select a vabs_0_f_f) elem pos N i) (assign_32_12_1_abs0 vabs_0_f_f (select a vabs_0_f_f) elem pos N i))))
(assert (forall ((i Int) (N Int) (pos Int) (elem Int) (a (Array Int Int)) (vabs_0_f_f Int)) (=> (assign_32_12_1_abs0 vabs_0_f_f (select a vabs_0_f_f) elem pos N i) (assign_44_13_1_abs0 vabs_0_f_f (select a vabs_0_f_f) elem pos N 0))))
(assert (forall ((rnd Int) (i Int) (N Int) (pos Int) (elem Int) (a (Array Int Int)) (vabs_0_f_f Int)) (=> (assign_44_13_1_abs0 vabs_0_f_f (select a vabs_0_f_f) elem pos N i) (assign_56_14_1_abs0 vabs_0_f_f (select a vabs_0_f_f) elem pos rnd i))))
(assert (forall ((rnd Int) (i Int) (N Int) (pos Int) (elem Int) (a (Array Int Int)) (vabs_0_f_f Int)) (=> (assign_56_14_1_abs0 vabs_0_f_f (select a vabs_0_f_f) elem pos N i) (assign_65_15_1_abs0 vabs_0_f_f (select a vabs_0_f_f) rnd pos N i))))
(assert (forall ((i Int) (N Int) (pos Int) (elem Int) (a (Array Int Int)) (vabs_0_f_f Int)) (=> (assign_65_15_1_abs0 vabs_0_f_f (select a vabs_0_f_f) elem pos N i) (while_148_17_1_abs0 vabs_0_f_f (select a vabs_0_f_f) elem (- 0 1) N i))))
(assert (forall ((a (Array Int Int)) (elem Int) (pos Int) (N Int) (i Int) (vabs_0_f_f Int)) (=> (and (while_148_17_1_abs0 vabs_0_f_f (select a vabs_0_f_f) elem pos N i) (< i N)) (assert_106_18_12_abs0 vabs_0_f_f (select a vabs_0_f_f) elem pos N i))))
(assert (forall ((a (Array Int Int)) (elem Int) (pos Int) (N Int) (i Int) (vabs_0_f_f Int)) (=> (and (while_148_17_1_abs0 vabs_0_f_f (select a vabs_0_f_f) elem pos N i) (not (< i N))) (assign_154_26_8_abs0 vabs_0_f_f (select a vabs_0_f_f) elem pos N i))))
(assert (forall ((k Int) (i Int) (N Int) (pos Int) (elem Int) (a (Array Int Int))) (=> (and (assert_106_18_12_abs0 k (select a k) elem pos N i) (>= k 0) (< k i)) (not (= (select a k) elem)))))
(assert (forall ((i Int) (N Int) (pos Int) (elem Int) (a (Array Int Int)) (vabs_0_f_f Int)) (=> (assert_106_18_12_abs0 vabs_0_f_f (select a vabs_0_f_f) elem pos N i) (if_137_19_5_abs0 vabs_0_f_f (select a vabs_0_f_f) elem pos N i))))
(assert (forall ((a (Array Int Int)) (elem Int) (pos Int) (N Int) (i Int) (vabs_0_f_f Int)) (=> (and (if_137_19_5_abs0 i (select a i) elem pos N i) (if_137_19_5_abs0 vabs_0_f_f (select a vabs_0_f_f) elem pos N i) (= (select a i) elem)) (assign_124_20_2_abs0 vabs_0_f_f (select a vabs_0_f_f) elem pos N i))))
(assert (forall ((a (Array Int Int)) (elem Int) (pos Int) (N Int) (i Int) (vabs_0_f_f Int)) (=> (and (if_137_19_5_abs0 i (select a i) elem pos N i) (if_137_19_5_abs0 vabs_0_f_f (select a vabs_0_f_f) elem pos N i) (not (= (select a i) elem))) (assign_145_23_5_abs0 vabs_0_f_f (select a vabs_0_f_f) elem pos N i))))
(assert (forall ((i Int) (N Int) (pos Int) (elem Int) (a (Array Int Int)) (vabs_0_f_f Int)) (=> (assign_124_20_2_abs0 vabs_0_f_f (select a vabs_0_f_f) elem pos N i) (assign_133_21_2_abs0 vabs_0_f_f (select a vabs_0_f_f) elem i N i))))
(assert (forall ((i Int) (N Int) (pos Int) (elem Int) (a (Array Int Int)) (vabs_0_f_f Int)) (=> (assign_133_21_2_abs0 vabs_0_f_f (select a vabs_0_f_f) elem pos N i) (assign_145_23_5_abs0 vabs_0_f_f (select a vabs_0_f_f) elem pos N (+ N 2)))))
(assert (forall ((i Int) (N Int) (pos Int) (elem Int) (a (Array Int Int)) (vabs_0_f_f Int)) (=> (assign_145_23_5_abs0 vabs_0_f_f (select a vabs_0_f_f) elem pos N i) (while_148_17_1_abs0 vabs_0_f_f (select a vabs_0_f_f) elem pos N (+ i 1)))))
(assert (forall ((i Int) (N Int) (pos Int) (elem Int) (a (Array Int Int)) (vabs_0_f_f Int)) (=> (assign_154_26_8_abs0 vabs_0_f_f (select a vabs_0_f_f) elem pos N i) (while_222_27_8_abs0 vabs_0_f_f (select a vabs_0_f_f) elem pos N 0))))
(assert (forall ((a (Array Int Int)) (elem Int) (pos Int) (N Int) (i Int) (vabs_0_f_f Int)) (=> (and (while_222_27_8_abs0 vabs_0_f_f (select a vabs_0_f_f) elem pos N i) (< i pos)) (assert_195_29_10_abs0 vabs_0_f_f (select a vabs_0_f_f) elem pos N i))))
(assert (forall ((a (Array Int Int)) (elem Int) (pos Int) (N Int) (i Int) (vabs_0_f_f Int)) (=> (and (while_222_27_8_abs0 vabs_0_f_f (select a vabs_0_f_f) elem pos N i) (not (< i pos))) (assert_245_33_8_abs0 vabs_0_f_f (select a vabs_0_f_f) elem pos N i))))
(assert (forall ((k Int) (i Int) (N Int) (pos Int) (elem Int) (a (Array Int Int))) (=> (and (assert_195_29_10_abs0 k (select a k) elem pos N i) (>= k 0) (< k pos)) (not (= (select a k) elem)))))
(assert (forall ((i Int) (N Int) (pos Int) (elem Int) (a (Array Int Int)) (vabs_0_f_f Int)) (=> (assert_195_29_10_abs0 vabs_0_f_f (select a vabs_0_f_f) elem pos N i) (assert_210_30_10_abs0 vabs_0_f_f (select a vabs_0_f_f) elem pos N i))))
(assert (forall ((i Int) (N Int) (pos Int) (elem Int) (a (Array Int Int))) (=> (assert_210_30_10_abs0 i (select a i) elem pos N i) (not (= (select a i) elem)))))
(assert (forall ((i Int) (N Int) (pos Int) (elem Int) (a (Array Int Int)) (vabs_0_f_f Int)) (=> (assert_210_30_10_abs0 vabs_0_f_f (select a vabs_0_f_f) elem pos N i) (assign_219_31_10_abs0 vabs_0_f_f (select a vabs_0_f_f) elem pos N i))))
(assert (forall ((i Int) (N Int) (pos Int) (elem Int) (a (Array Int Int)) (vabs_0_f_f Int)) (=> (assign_219_31_10_abs0 vabs_0_f_f (select a vabs_0_f_f) elem pos N i) (while_222_27_8_abs0 vabs_0_f_f (select a vabs_0_f_f) elem pos N (+ i 1)))))
(assert (forall ((i Int) (N Int) (pos Int) (elem Int) (a (Array Int Int))) (=> (assert_245_33_8_abs0 pos (select a pos) elem pos N i) (or (= (select a pos) elem) (= pos (- 0 1))))))
(assert (forall ((i Int) (N Int) (pos Int) (elem Int) (a (Array Int Int)) (vabs_0_f_f Int)) (=> (assert_245_33_8_abs0 vabs_0_f_f (select a vabs_0_f_f) elem pos N i) (end_abs0 vabs_0_f_f (select a vabs_0_f_f) elem pos N i))))
(check-sat)